========================================================== 
File name: C:\DEGR\assets\definitions\MSRCPSP_Gen\200_40_512_5_C.def
Creation date: Wed May 03 10:49:04 CEST 2023
Website: http://imopse.ii.pwr.edu.pl/ 
Reference: 
Myszkowski P. B., Skowronski M. E., Olech L., Oslizlo K., 
Hybrid Ant Colony Optimization in solving Multi-Skill Resource-Constrained Project Scheduling Problem, 
Soft Computing, DOI: DOI 10.1007/s00500-014-1455-x 
========================================================== 
General characteristics: 
Tasks: 200
Resources: 40
Precedence relations: 504
Number of skill types: 5
========================================================== 
ResourceID 	 Salary 	 Skills 
1	 	 	34.7	 	 Q0: 0 	 
2	 	 	64.0	 	 Q1: 2 	  Q4: 3 	  Q3: 0 	  Q2: 0 	 
3	 	 	85.0	 	 Q0: 1 	  Q3: 3 	 
4	 	 	20.5	 	 Q3: 0 	  Q2: 2 	  Q0: 2 	 
5	 	 	94.2	 	 Q1: 1 	  Q2: 3 	  Q4: 0 	 
6	 	 	43.9	 	 Q4: 0 	  Q0: 1 	  Q2: 2 	  Q3: 0 	 
7	 	 	10.6	 	 Q4: 1 	 
8	 	 	51.0	 	 Q4: 3 	 
9	 	 	63.6	 	 Q2: 0 	 
10	 	 	73.5	 	 Q4: 2 	 
11	 	 	40.0	 	 Q4: 0 	  Q1: 0 	 
12	 	 	37.3	 	 Q3: 3 	  Q4: 2 	  Q2: 2 	 
13	 	 	24.6	 	 Q0: 1 	  Q4: 0 	  Q3: 1 	  Q2: 3 	 
14	 	 	36.9	 	 Q0: 1 	 
15	 	 	42.2	 	 Q1: 0 	 
16	 	 	49.8	 	 Q1: 2 	  Q2: 3 	  Q3: 2 	 
17	 	 	47.6	 	 Q2: 0 	  Q1: 2 	 
18	 	 	82.3	 	 Q1: 0 	  Q3: 2 	 
19	 	 	96.6	 	 Q3: 2 	  Q2: 2 	  Q4: 3 	  Q1: 3 	 
20	 	 	66.9	 	 Q3: 1 	 
21	 	 	77.4	 	 Q4: 2 	  Q3: 1 	  Q2: 1 	 
22	 	 	35.7	 	 Q2: 0 	 
23	 	 	81.2	 	 Q4: 2 	  Q3: 3 	  Q2: 1 	 
24	 	 	75.2	 	 Q0: 3 	  Q2: 3 	 
25	 	 	23.8	 	 Q3: 0 	  Q4: 0 	  Q1: 0 	 
26	 	 	12.3	 	 Q2: 2 	  Q4: 0 	  Q0: 1 	 
27	 	 	75.0	 	 Q2: 1 	  Q3: 2 	  Q1: 2 	  Q0: 1 	 
28	 	 	47.7	 	 Q4: 3 	 
29	 	 	73.7	 	 Q2: 1 	  Q3: 0 	  Q0: 1 	 
30	 	 	50.0	 	 Q2: 2 	  Q1: 1 	  Q0: 3 	  Q3: 0 	 
31	 	 	50.4	 	 Q4: 3 	  Q2: 1 	 
32	 	 	62.5	 	 Q2: 0 	  Q0: 2 	 
33	 	 	64.0	 	 Q3: 2 	  Q4: 3 	  Q0: 3 	 
34	 	 	31.9	 	 Q3: 1 	  Q0: 2 	  Q1: 3 	  Q4: 2 	 
35	 	 	75.4	 	 Q0: 2 	  Q1: 3 	  Q3: 2 	  Q2: 0 	 
36	 	 	52.4	 	 Q0: 2 	  Q1: 3 	  Q2: 1 	 
37	 	 	38.1	 	 Q4: 2 	  Q0: 3 	  Q3: 2 	  Q1: 0 	 
38	 	 	91.9	 	 Q1: 0 	 
39	 	 	36.6	 	 Q4: 1 	  Q0: 0 	  Q3: 1 	  Q2: 1 	 
40	 	 	92.2	 	 Q2: 0 	  Q4: 3 	  Q3: 2 	 
========================================================== 
TaskID 	 Duration 	 Skill 	 Predecessor IDs 
1	10	Q2:	3
2	31	Q3:	3
3	40	Q1:	1
4	13	Q3:	1
5	13	Q4:	1
6	27	Q0:	3
7	11	Q0:	2
8	31	Q2:	1
9	22	Q4:	1
10	38	Q4:	2
11	27	Q0:	0
12	40	Q0:	1	11
13	33	Q3:	1	7
14	17	Q1:	1	2
15	19	Q0:	2	8
16	38	Q0:	1
17	33	Q3:	1
18	35	Q3:	0	12
19	21	Q1:	3	11	7	13
20	10	Q0:	3
21	9	Q0:	0
22	16	Q3:	2	10
23	20	Q3:	0
24	20	Q0:	2
25	32	Q0:	0	20
26	30	Q1:	3	22
27	16	Q2:	2
28	18	Q4:	1
29	39	Q4:	2	7
30	34	Q2:	0
31	34	Q3:	3	13
32	36	Q4:	2
33	37	Q3:	0
34	12	Q4:	3	25
35	22	Q4:	1
36	29	Q2:	1
37	38	Q3:	0	15	33	20
38	16	Q1:	2
39	30	Q1:	1
40	35	Q3:	1	37	14
41	33	Q3:	3	20	4
42	38	Q4:	0	26	37
43	16	Q1:	0	39	18
44	37	Q0:	2	19
45	19	Q2:	3	20
46	17	Q0:	1	45	11	44
47	38	Q4:	1
48	19	Q4:	2
49	17	Q0:	0	37
50	37	Q1:	2
51	39	Q3:	2
52	11	Q0:	0	19
53	11	Q2:	3	41
54	28	Q0:	1
55	24	Q3:	3	29	28
56	9	Q2:	1	28	29
57	33	Q3:	1	30	15
58	12	Q4:	0	21
59	34	Q1:	2	43	36	51	30
60	23	Q1:	2
61	29	Q0:	2	16	58
62	16	Q0:	2	24	49	55
63	34	Q2:	2	60
64	20	Q3:	3	14
65	14	Q1:	1	32	55	17
66	26	Q3:	1
67	30	Q4:	3	3
68	32	Q4:	2	43	13
69	16	Q2:	0	63
70	22	Q2:	3
71	26	Q2:	3	9
72	39	Q0:	0	62
73	36	Q3:	2	24	14	67
74	26	Q2:	2
75	32	Q0:	1	19	58
76	39	Q3:	2	42	43	65	73
77	19	Q0:	1	28	72	69
78	30	Q4:	2	48	69
79	35	Q2:	0	61
80	34	Q1:	1	55	36
81	36	Q1:	0	78	28
82	18	Q0:	3	81	29	18
83	34	Q3:	0	58
84	23	Q1:	2
85	32	Q0:	3	11
86	28	Q4:	0	41	36	25	5	22
87	33	Q4:	0	72	79
88	10	Q1:	1	49
89	37	Q2:	3	75	48	64	55
90	36	Q2:	0
91	22	Q2:	2	12	80
92	36	Q0:	1	46	23	49	15
93	9	Q3:	1	16	31	18
94	16	Q3:	0	21	33	37	47
95	38	Q3:	2	8	90	12	61	17
96	33	Q4:	0	83	55	32	69
97	14	Q4:	0	88
98	19	Q1:	3
99	18	Q1:	0	32	80	11	77
100	34	Q0:	3	20	43	14	98
101	33	Q1:	1	3	33	96
102	21	Q4:	1	34	30	51	16
103	31	Q1:	1	87	59
104	17	Q4:	1	26	1
105	15	Q0:	3	67	64
106	30	Q4:	2	71	102
107	36	Q0:	0	27
108	32	Q0:	1	84	98	68	53
109	13	Q2:	0	96	24
110	27	Q4:	0	38
111	16	Q3:	1	44	104	11	88
112	18	Q3:	1	70	23	61
113	25	Q2:	0	101	13
114	31	Q4:	2	32	28
115	25	Q2:	3	33	34
116	33	Q2:	3	73	103	12	27
117	30	Q0:	3	2
118	38	Q1:	3	75	107
119	10	Q3:	1	27	81
120	19	Q4:	2	36	41	32	27	96
121	27	Q4:	0	74	18	11
122	23	Q1:	1	70	121	114
123	40	Q3:	3	98	93	30
124	16	Q4:	0	66	27	57	55	114	56
125	14	Q2:	3	65	72
126	14	Q1:	3	120	117	29	76
127	17	Q4:	1	35	61	50	97	51
128	20	Q3:	1	82	49	116	15
129	15	Q4:	0	34
130	23	Q2:	1	34
131	21	Q3:	0	52	101	83	24	53
132	18	Q3:	0	58	19
133	23	Q3:	2	123	31	109
134	18	Q4:	2	51	129	65	130	81	64	20
135	39	Q2:	0
136	15	Q3:	0	57	59	18	52	55	105	102	127
137	34	Q2:	1	81	101	66	20
138	37	Q1:	1	2	128	65
139	18	Q0:	1	132	138
140	36	Q2:	3	4	47	7
141	39	Q4:	1	21	135	14	4	61
142	30	Q2:	3	127	60	14
143	11	Q0:	3	16	142	137	118
144	12	Q0:	2	100	117	51
145	40	Q3:	2	79	18
146	25	Q3:	1	34	15	68
147	36	Q3:	0	113	129	22
148	25	Q2:	2	51	4	120
149	24	Q3:	1	12	28
150	10	Q2:	3	32	66	21	10
151	14	Q4:	0	36	50	90	148
152	17	Q4:	1	9	107	123	70	137
153	37	Q2:	2	17	90	3	56
154	13	Q1:	3
155	27	Q0:	0	51	137
156	29	Q3:	3	94	64	16	32	26
157	39	Q1:	3	106
158	39	Q2:	2	101	126	52	105
159	28	Q0:	0	121	136
160	26	Q1:	3	119	107	3	58	6
161	36	Q4:	0	131	34	32	127
162	35	Q0:	3	161	143	160
163	17	Q0:	1	148	115	43	95	54
164	24	Q4:	1	89	54	55	60
165	23	Q1:	2	49	93	150	139	84	39	96	57
166	37	Q1:	0	75	98	58	61	128	141	139
167	12	Q2:	0	93	42
168	11	Q2:	1	50	165	16	29
169	32	Q3:	0	95	126	52
170	34	Q4:	3	40	152	161	54	26	134	148
171	38	Q1:	3	114	59	35	168
172	35	Q3:	0	20	132	27	136
173	19	Q0:	2	102	150	7	2
174	38	Q3:	2	73	156	24	49
175	35	Q2:	1	170	127	150	148
176	21	Q4:	0	50	81	98	146	48	156	63
177	18	Q4:	3	121	112	102	24
178	16	Q3:	2	88	129
179	27	Q2:	0	76	139	48
180	36	Q0:	2	142	136	41	74
181	10	Q3:	0	3	85
182	9	Q1:	3	126	13	72	116	51
183	23	Q3:	2	71	148	47	81	158	18	31	86	146
184	27	Q0:	3	7	94	40	55	181	142	150	68	163	174
185	17	Q4:	3	126	62	11
186	23	Q2:	3	79
187	39	Q0:	1	159	154	129	46	133
188	21	Q1:	2	65	29	89	8	88	145	11
189	36	Q2:	2	41	168	151	25	181	26	118
190	30	Q4:	1	169	19	40	98	159	61	18
191	22	Q1:	3	62	64	31	66	57	190	32
192	24	Q4:	0	2	37	164	32	38	181	103
193	26	Q2:	2	88	185	181	46
194	30	Q1:	0	139	5
195	29	Q2:	3	154	31	18	90
196	11	Q3:	0	134	167	43	6	135	91	132	189	109	148
197	25	Q3:	3	120	132	31	25	33	177
198	25	Q3:	2	80	147	106	133
199	13	Q3:	2	139	140
200	38	Q4:	0	98	39	23	29	67
========================================================== 